solving instance uflp nlass holmberg 12 sinabc2
Couenne 0.5.8 -- an Open-Source solver for Mixed Integer Nonlinear Optimization
Mailing list: couenne@list.coin-or.org
Instructions: http://www.coin-or.org/Couenne
couenne: 
ANALYSIS TEST: Reformulating problem: 0.9 seconds
NLP0012I 
              Num      Status      Obj             It       time                 Location
NLP0014I             1         OPT 7872.9178      502 12.67699
NLP0014I             2         OPT 14213.75      197 3.254265
Couenne: new cutoff value 1.4213749760e+04 (21.353 seconds)
Loaded instance "/tmp/jl_714RZg/model.nl"
Constraints:         1550
Variables:           1510 (510 integer)
Auxiliaries:         2051 (0 integer)

Coin0506I Presolve 6991 (-560) rows, 2951 (-610) columns and 15391 (-1170) elements
Clp0006I 0  Obj 0 Primal inf 1743.5079 (1050)
Clp0006I 214  Obj 0 Primal inf 1864.6799 (1100)
Clp0006I 428  Obj 0 Primal inf 1685.2845 (1100)
Clp0006I 642  Obj 2.9114385e-15 Primal inf 2756.0306 (1174)
Clp0006I 856  Obj 9.9039068e-15 Primal inf 2135.5351 (1098)
Clp0006I 1070  Obj 1.3808567e-14 Primal inf 2350.0785 (1086)
Clp0006I 1284  Obj 2.0646425e-14 Primal inf 2341.1741 (1015)
Clp0006I 1498  Obj 3.4117919e-13 Primal inf 3629.0091 (1219)
Clp0006I 1712  Obj 2.2916365e-13 Primal inf 3748.0958 (1188)
Clp0006I 1926  Obj 4.5340569e-12 Primal inf 2836.0105 (1039)
Clp0006I 2140  Obj 4.2506126e-10 Primal inf 1304.5659 (779)
Clp0006I 2354  Obj 560.60033 Primal inf 1747.4245 (911)
Clp0006I 2568  Obj 658.62853 Primal inf 106.28074 (248)
Clp0006I 2782  Obj 771.28514 Primal inf 32.371093 (120)
Clp0006I 2979  Obj 884.84616
Clp0000I Optimal - objective value 884.84616
Clp0032I Optimal objective 884.8461622 - 2979 iterations time 0.302, Presolve 0.04
Clp0000I Optimal - objective value 884.84616
Cbc0012I Integer solution of 14213.75 found by Couenne Rounding NLP after 0 iterations and 0 nodes (0.01 seconds)
NLP Heuristic: time limit reached.
Clp0000I Optimal - objective value 884.84616
Optimality Based BT: 0 improved bounds
Probing: 0 improved bounds
NLP Heuristic: time limit reached.
Cbc0031I 748 added rows had average density of 2
Cbc0013I At root node, 748 cuts changed objective from 884.84616 to 2465.9552 in 20 passes
Cbc0014I Cut generator 0 (Couenne convexifier cuts) - 8229 row cuts average 2.0 elements, 1 column cuts (743 active)
Cbc0010I After 0 nodes, 1 on tree, 14213.75 best solution, best possible 2465.9552 (25.51 seconds)
Optimality Based BT: 0 improved bounds
Optimality Based BT: 1 improved bounds
Couenne: new cutoff value 1.3638773019e+04 (126.701 seconds)
Cbc0012I Integer solution of 13638.773 found by Couenne Rounding NLP after 9047 iterations and 2 nodes (104.89 seconds)
Optimality Based BT: 0 improved bounds
Optimality Based BT: 1 improved bounds
Couenne: new cutoff value 1.2146487720e+04 (204.83 seconds)
Cbc0012I Integer solution of 12146.488 found by Couenne Rounding NLP after 12363 iterations and 4 nodes (183.02 seconds)
Optimality Based BT: 0 improved bounds
Cbc0010I After 100 nodes, 50 on tree, 12146.488 best solution, best possible 2991.3203 (317.61 seconds)
Cbc0010I After 200 nodes, 100 on tree, 12146.488 best solution, best possible 2991.3203 (334.49 seconds)
Cbc0010I After 300 nodes, 150 on tree, 12146.488 best solution, best possible 2991.3203 (349.39 seconds)
Cbc0010I After 400 nodes, 200 on tree, 12146.488 best solution, best possible 2991.3203 (362.64 seconds)
Cbc0010I After 500 nodes, 250 on tree, 12146.488 best solution, best possible 2991.3203 (374.65 seconds)
Optimality Based BT: 0 improved bounds
Couenne: new cutoff value 1.2010299128e+04 (434.577 seconds)
Cbc0012I Integer solution of 12010.299 found by Couenne Rounding NLP after 243372 iterations and 555 nodes (412.77 seconds)
Optimality Based BT: 1 improved bounds
Couenne: new cutoff value 1.1314085612e+04 (468.867 seconds)
Cbc0012I Integer solution of 11314.086 found by Couenne Rounding NLP after 246386 iterations and 556 nodes (447.06 seconds)
Optimality Based BT: 0 improved bounds
Cbc0010I After 600 nodes, 282 on tree, 11314.086 best solution, best possible 3033.9968 (528.81 seconds)
Cbc0010I After 700 nodes, 332 on tree, 11314.086 best solution, best possible 3033.9968 (555.80 seconds)
Cbc0010I After 800 nodes, 382 on tree, 11314.086 best solution, best possible 3033.9968 (579.99 seconds)
Cbc0010I After 900 nodes, 432 on tree, 11314.086 best solution, best possible 3033.9968 (603.37 seconds)
Cbc0010I After 1000 nodes, 482 on tree, 11314.086 best solution, best possible 3033.9968 (624.53 seconds)
Cbc0010I After 1100 nodes, 518 on tree, 11314.086 best solution, best possible 3033.9968 (641.66 seconds)
Cbc0010I After 1200 nodes, 562 on tree, 11314.086 best solution, best possible 3035.7395 (690.56 seconds)
Cbc0010I After 1300 nodes, 612 on tree, 11314.086 best solution, best possible 3035.7395 (711.72 seconds)
Cbc0010I After 1400 nodes, 662 on tree, 11314.086 best solution, best possible 3035.7395 (722.60 seconds)
Cbc0010I After 1500 nodes, 709 on tree, 11314.086 best solution, best possible 3055.5447 (744.14 seconds)
Cbc0010I After 1600 nodes, 759 on tree, 11314.086 best solution, best possible 3055.5447 (765.19 seconds)
Cbc0010I After 1700 nodes, 809 on tree, 11314.086 best solution, best possible 3055.5447 (783.54 seconds)
Cbc0010I After 1800 nodes, 859 on tree, 11314.086 best solution, best possible 3055.5447 (799.89 seconds)
Couenne: new cutoff value 1.1028170109e+04 (885.685 seconds)
Cbc0012I Integer solution of 11028.17 found by Couenne Rounding NLP after 1007413 iterations and 1848 nodes (863.88 seconds)
Cbc0010I After 1900 nodes, 869 on tree, 11028.17 best solution, best possible 3068.9013 (919.97 seconds)
Cbc0010I After 2000 nodes, 919 on tree, 11028.17 best solution, best possible 3068.9013 (941.49 seconds)
Cbc0010I After 2100 nodes, 969 on tree, 11028.17 best solution, best possible 3068.9013 (960.04 seconds)
Cbc0010I After 2200 nodes, 1019 on tree, 11028.17 best solution, best possible 3068.9013 (977.89 seconds)
Cbc0010I After 2300 nodes, 1069 on tree, 11028.17 best solution, best possible 3068.9013 (993.45 seconds)
Cbc0010I After 2400 nodes, 1116 on tree, 11028.17 best solution, best possible 3082.9129 (1022.00 seconds)
Cbc0010I After 2500 nodes, 1166 on tree, 11028.17 best solution, best possible 3082.9129 (1047.77 seconds)
Cbc0010I After 2600 nodes, 1216 on tree, 11028.17 best solution, best possible 3082.9129 (1071.20 seconds)
Cbc0010I After 2700 nodes, 1266 on tree, 11028.17 best solution, best possible 3082.9129 (1092.03 seconds)
Cbc0010I After 2800 nodes, 1306 on tree, 11028.17 best solution, best possible 3113.803 (1111.45 seconds)
Cbc0010I After 2900 nodes, 1356 on tree, 11028.17 best solution, best possible 3113.803 (1122.42 seconds)
Cbc0010I After 3000 nodes, 1401 on tree, 11028.17 best solution, best possible 3113.803 (1134.03 seconds)
Cbc0010I After 3100 nodes, 1449 on tree, 11028.17 best solution, best possible 3153.9712 (1157.88 seconds)
Cbc0010I After 3200 nodes, 1499 on tree, 11028.17 best solution, best possible 3153.9712 (1179.56 seconds)
Cbc0010I After 3300 nodes, 1549 on tree, 11028.17 best solution, best possible 3153.9712 (1199.22 seconds)
Cbc0010I After 3400 nodes, 1599 on tree, 11028.17 best solution, best possible 3153.9712 (1216.00 seconds)
Cbc0010I After 3500 nodes, 1649 on tree, 11028.17 best solution, best possible 3153.9712 (1230.86 seconds)
Cbc0010I After 3600 nodes, 1699 on tree, 11028.17 best solution, best possible 3153.9712 (1243.68 seconds)
Cbc0010I After 3700 nodes, 1745 on tree, 11028.17 best solution, best possible 3258.8408 (1260.51 seconds)
Cbc0010I After 3800 nodes, 1795 on tree, 11028.17 best solution, best possible 3258.8408 (1287.62 seconds)
Cbc0010I After 3900 nodes, 1845 on tree, 11028.17 best solution, best possible 3258.8408 (1309.28 seconds)
Cbc0010I After 4000 nodes, 1895 on tree, 11028.17 best solution, best possible 3258.8408 (1329.80 seconds)
Cbc0010I After 4100 nodes, 1945 on tree, 11028.17 best solution, best possible 3258.8408 (1348.37 seconds)
Cbc0010I After 4200 nodes, 1995 on tree, 11028.17 best solution, best possible 3258.8408 (1364.71 seconds)
Cbc0010I After 4300 nodes, 2034 on tree, 11028.17 best solution, best possible 3283.289 (1378.76 seconds)
Cbc0010I After 4400 nodes, 2084 on tree, 11028.17 best solution, best possible 3283.289 (1402.26 seconds)
Cbc0010I After 4500 nodes, 2134 on tree, 11028.17 best solution, best possible 3283.289 (1420.75 seconds)
Cbc0010I After 4600 nodes, 2184 on tree, 11028.17 best solution, best possible 3283.289 (1433.77 seconds)
Cbc0010I After 4700 nodes, 2230 on tree, 11028.17 best solution, best possible 3309.7269 (1450.93 seconds)
Cbc0010I After 4800 nodes, 2280 on tree, 11028.17 best solution, best possible 3309.7269 (1470.97 seconds)
Cbc0010I After 4900 nodes, 2330 on tree, 11028.17 best solution, best possible 3309.7269 (1490.19 seconds)
Cbc0010I After 5000 nodes, 2380 on tree, 11028.17 best solution, best possible 3309.7269 (1506.96 seconds)
Cbc0010I After 5100 nodes, 2430 on tree, 11028.17 best solution, best possible 3309.7269 (1521.69 seconds)
Cbc0010I After 5200 nodes, 2480 on tree, 11028.17 best solution, best possible 3309.7269 (1532.65 seconds)
Cbc0010I After 5300 nodes, 2525 on tree, 11028.17 best solution, best possible 3316.2197 (1576.65 seconds)
Cbc0010I After 5400 nodes, 2575 on tree, 11028.17 best solution, best possible 3316.2197 (1586.69 seconds)
Cbc0010I After 5500 nodes, 2625 on tree, 11028.17 best solution, best possible 3316.2197 (1598.40 seconds)
Cbc0010I After 5600 nodes, 2667 on tree, 11028.17 best solution, best possible 3389.1612 (1617.60 seconds)
Cbc0010I After 5700 nodes, 2717 on tree, 11028.17 best solution, best possible 3389.1612 (1639.92 seconds)
Cbc0010I After 5800 nodes, 2767 on tree, 11028.17 best solution, best possible 3389.1612 (1659.89 seconds)
Cbc0010I After 5900 nodes, 2817 on tree, 11028.17 best solution, best possible 3389.1612 (1677.94 seconds)
Cbc0010I After 6000 nodes, 2867 on tree, 11028.17 best solution, best possible 3389.1612 (1694.94 seconds)
Cbc0010I After 6100 nodes, 2917 on tree, 11028.17 best solution, best possible 3389.1612 (1709.16 seconds)
Cbc0010I After 6200 nodes, 2956 on tree, 11028.17 best solution, best possible 3448.339 (1723.43 seconds)
Cbc0010I After 6300 nodes, 3006 on tree, 11028.17 best solution, best possible 3448.339 (1741.48 seconds)
Cbc0010I After 6400 nodes, 3056 on tree, 11028.17 best solution, best possible 3448.339 (1758.09 seconds)
Cbc0010I After 6500 nodes, 3106 on tree, 11028.17 best solution, best possible 3448.339 (1773.30 seconds)
Cbc0010I After 6600 nodes, 3152 on tree, 11028.17 best solution, best possible 3464.9666 (1786.36 seconds)
Cbc0010I After 6700 nodes, 3202 on tree, 11028.17 best solution, best possible 3464.9666 (1808.14 seconds)
Cbc0010I After 6800 nodes, 3252 on tree, 11028.17 best solution, best possible 3464.9666 (1826.56 seconds)
Cbc0010I After 6900 nodes, 3297 on tree, 11028.17 best solution, best possible 3483.9568 (1852.97 seconds)
Cbc0010I After 7000 nodes, 3347 on tree, 11028.17 best solution, best possible 3483.9568 (1870.03 seconds)
Cbc0010I After 7100 nodes, 3395 on tree, 11028.17 best solution, best possible 3483.9568 (1885.87 seconds)
Cbc0010I After 7200 nodes, 3436 on tree, 11028.17 best solution, best possible 3509.6505 (1908.96 seconds)
Cbc0010I After 7300 nodes, 3486 on tree, 11028.17 best solution, best possible 3509.6505 (1928.55 seconds)
Cbc0010I After 7400 nodes, 3536 on tree, 11028.17 best solution, best possible 3509.6505 (1947.08 seconds)
Cbc0010I After 7500 nodes, 3586 on tree, 11028.17 best solution, best possible 3509.6505 (1963.54 seconds)
Cbc0010I After 7600 nodes, 3636 on tree, 11028.17 best solution, best possible 3509.6505 (1977.88 seconds)
Cbc0010I After 7700 nodes, 3686 on tree, 11028.17 best solution, best possible 3509.6505 (1989.62 seconds)
Cbc0010I After 7800 nodes, 3736 on tree, 11028.17 best solution, best possible 3509.6505 (2001.60 seconds)
Optimality Based BT: 0 improved bounds
Optimality Based BT: 0 improved bounds
Cbc0010I After 7900 nodes, 3778 on tree, 11028.17 best solution, best possible 3515.0456 (2108.19 seconds)
Cbc0010I After 8000 nodes, 3828 on tree, 11028.17 best solution, best possible 3515.0456 (2124.47 seconds)
Cbc0010I After 8100 nodes, 3878 on tree, 11028.17 best solution, best possible 3515.0456 (2133.64 seconds)
Cbc0010I After 8200 nodes, 3928 on tree, 11028.17 best solution, best possible 3515.0456 (2145.03 seconds)
Cbc0010I After 8300 nodes, 3978 on tree, 11028.17 best solution, best possible 3515.0456 (2156.43 seconds)
Cbc0010I After 8400 nodes, 4028 on tree, 11028.17 best solution, best possible 3515.0456 (2167.89 seconds)
Cbc0010I After 8500 nodes, 4078 on tree, 11028.17 best solution, best possible 3515.0456 (2179.25 seconds)
Cbc0010I After 8600 nodes, 4128 on tree, 11028.17 best solution, best possible 3515.0456 (2189.97 seconds)
Cbc0010I After 8700 nodes, 4178 on tree, 11028.17 best solution, best possible 3515.0456 (2199.80 seconds)
Cbc0010I After 8800 nodes, 4228 on tree, 11028.17 best solution, best possible 3515.0456 (2209.16 seconds)
Cbc0010I After 8900 nodes, 4278 on tree, 11028.17 best solution, best possible 3515.0456 (2218.26 seconds)
Cbc0010I After 9000 nodes, 4328 on tree, 11028.17 best solution, best possible 3515.0456 (2226.81 seconds)
Cbc0010I After 9100 nodes, 4378 on tree, 11028.17 best solution, best possible 3515.0456 (2235.05 seconds)
Cbc0010I After 9200 nodes, 4428 on tree, 11028.17 best solution, best possible 3515.0456 (2243.38 seconds)
Cbc0010I After 9300 nodes, 4478 on tree, 11028.17 best solution, best possible 3515.0456 (2251.59 seconds)
Cbc0010I After 9400 nodes, 4528 on tree, 11028.17 best solution, best possible 3515.0456 (2260.10 seconds)
Cbc0010I After 9500 nodes, 4578 on tree, 11028.17 best solution, best possible 3515.0456 (2268.44 seconds)
Cbc0010I After 9600 nodes, 4628 on tree, 11028.17 best solution, best possible 3515.0456 (2276.90 seconds)
Cbc0010I After 9700 nodes, 4677 on tree, 11028.17 best solution, best possible 3515.0456 (2285.51 seconds)
Cbc0010I After 9800 nodes, 4725 on tree, 11028.17 best solution, best possible 3515.0456 (2294.16 seconds)
Cbc0010I After 9900 nodes, 4775 on tree, 11028.17 best solution, best possible 3515.0456 (2302.81 seconds)
Cbc0010I After 10000 nodes, 4824 on tree, 11028.17 best solution, best possible 3515.0456 (2311.40 seconds)
Cbc0010I After 10100 nodes, 4873 on tree, 11028.17 best solution, best possible 3515.0456 (2320.00 seconds)
Cbc0010I After 10200 nodes, 4923 on tree, 11028.17 best solution, best possible 3515.0456 (2328.61 seconds)
Cbc0010I After 10300 nodes, 4972 on tree, 11028.17 best solution, best possible 3515.0456 (2337.23 seconds)
Cbc0010I After 10400 nodes, 5022 on tree, 11028.17 best solution, best possible 3515.0456 (2345.83 seconds)
Cbc0010I After 10500 nodes, 5071 on tree, 11028.17 best solution, best possible 3515.0456 (2354.47 seconds)
Cbc0010I After 10600 nodes, 5121 on tree, 11028.17 best solution, best possible 3515.0456 (2363.23 seconds)
Cbc0010I After 10700 nodes, 5170 on tree, 11028.17 best solution, best possible 3515.0456 (2371.98 seconds)
Cbc0010I After 10800 nodes, 5220 on tree, 11028.17 best solution, best possible 3515.0456 (2380.91 seconds)
Cbc0010I After 10900 nodes, 5270 on tree, 11028.17 best solution, best possible 3515.0456 (2389.99 seconds)
Cbc0010I After 11000 nodes, 5320 on tree, 11028.17 best solution, best possible 3515.0456 (2399.09 seconds)
Cbc0010I After 11100 nodes, 5370 on tree, 11028.17 best solution, best possible 3515.0456 (2408.27 seconds)
Cbc0010I After 11200 nodes, 5420 on tree, 11028.17 best solution, best possible 3515.0456 (2417.71 seconds)
Cbc0010I After 11300 nodes, 5470 on tree, 11028.17 best solution, best possible 3515.0456 (2426.90 seconds)
Cbc0010I After 11400 nodes, 5520 on tree, 11028.17 best solution, best possible 3515.0456 (2436.20 seconds)
Cbc0010I After 11500 nodes, 5570 on tree, 11028.17 best solution, best possible 3515.0456 (2445.67 seconds)
Cbc0010I After 11600 nodes, 5620 on tree, 11028.17 best solution, best possible 3515.0456 (2454.75 seconds)
Cbc0010I After 11700 nodes, 5668 on tree, 11028.17 best solution, best possible 3515.0456 (2463.52 seconds)
Cbc0010I After 11800 nodes, 5714 on tree, 11028.17 best solution, best possible 3515.0456 (2472.09 seconds)
Cbc0010I After 11900 nodes, 5760 on tree, 11028.17 best solution, best possible 3515.0456 (2480.63 seconds)
Cbc0010I After 12000 nodes, 5810 on tree, 11028.17 best solution, best possible 3515.0456 (2489.23 seconds)
Cbc0010I After 12100 nodes, 5860 on tree, 11028.17 best solution, best possible 3515.0456 (2497.87 seconds)
Couenne: new cutoff value 1.0171583861e+04 (2525.62 seconds)
Optimality Based BT: 0 improved bounds
Optimality Based BT: 0 improved bounds
Cbc0010I After 12200 nodes, 5908 on tree, 11028.17 best solution, best possible 3516.208 (2540.90 seconds)
Cbc0010I After 12300 nodes, 5958 on tree, 11028.17 best solution, best possible 3516.208 (2559.06 seconds)
Cbc0010I After 12400 nodes, 6008 on tree, 11028.17 best solution, best possible 3516.208 (2571.51 seconds)
Cbc0010I After 12500 nodes, 6058 on tree, 11028.17 best solution, best possible 3516.208 (2580.64 seconds)
Cbc0010I After 12600 nodes, 6102 on tree, 11028.17 best solution, best possible 3516.4019 (2616.63 seconds)
Cbc0010I After 12700 nodes, 6152 on tree, 11028.17 best solution, best possible 3516.4019 (2636.77 seconds)
Cbc0010I After 12800 nodes, 6202 on tree, 11028.17 best solution, best possible 3516.4019 (2654.52 seconds)
Cbc0010I After 12900 nodes, 6252 on tree, 11028.17 best solution, best possible 3516.4019 (2667.74 seconds)
Cbc0010I After 13000 nodes, 6302 on tree, 11028.17 best solution, best possible 3516.4019 (2677.19 seconds)
Cbc0010I After 13100 nodes, 6346 on tree, 11028.17 best solution, best possible 3522.1756 (2703.41 seconds)
Cbc0010I After 13200 nodes, 6396 on tree, 11028.17 best solution, best possible 3522.1756 (2720.75 seconds)
Cbc0010I After 13300 nodes, 6446 on tree, 11028.17 best solution, best possible 3522.1756 (2731.05 seconds)
Cbc0010I After 13400 nodes, 6496 on tree, 11028.17 best solution, best possible 3522.1756 (2741.85 seconds)
Cbc0010I After 13500 nodes, 6546 on tree, 11028.17 best solution, best possible 3522.1756 (2753.47 seconds)
Optimality Based BT: 0 improved bounds
Cbc0010I After 13600 nodes, 6584 on tree, 11028.17 best solution, best possible 3527.9372 (2823.96 seconds)
Cbc0010I After 13700 nodes, 6634 on tree, 11028.17 best solution, best possible 3527.9372 (2846.86 seconds)
Cbc0010I After 13800 nodes, 6684 on tree, 11028.17 best solution, best possible 3527.9372 (2868.96 seconds)
Cbc0010I After 13900 nodes, 6734 on tree, 11028.17 best solution, best possible 3527.9372 (2886.17 seconds)
Cbc0010I After 14000 nodes, 6784 on tree, 11028.17 best solution, best possible 3527.9372 (2896.74 seconds)
Cbc0010I After 14100 nodes, 6829 on tree, 11028.17 best solution, best possible 3540.7754 (2910.65 seconds)
Cbc0010I After 14200 nodes, 6879 on tree, 11028.17 best solution, best possible 3540.7754 (2933.31 seconds)
Cbc0010I After 14300 nodes, 6929 on tree, 11028.17 best solution, best possible 3540.7754 (2954.34 seconds)
Cbc0010I After 14400 nodes, 6979 on tree, 11028.17 best solution, best possible 3540.7754 (2971.32 seconds)
Cbc0010I After 14500 nodes, 7029 on tree, 11028.17 best solution, best possible 3540.7754 (2983.19 seconds)
Cbc0010I After 14600 nodes, 7073 on tree, 11028.17 best solution, best possible 3542.1217 (2994.55 seconds)
Cbc0010I After 14700 nodes, 7123 on tree, 11028.17 best solution, best possible 3542.1217 (3016.87 seconds)
Cbc0010I After 14800 nodes, 7173 on tree, 11028.17 best solution, best possible 3542.1217 (3036.90 seconds)
Cbc0010I After 14900 nodes, 7223 on tree, 11028.17 best solution, best possible 3542.1217 (3048.13 seconds)
Cbc0010I After 15000 nodes, 7273 on tree, 11028.17 best solution, best possible 3542.1217 (3058.55 seconds)
Cbc0010I After 15100 nodes, 7318 on tree, 11028.17 best solution, best possible 3542.1217 (3070.31 seconds)
Cbc0010I After 15200 nodes, 7363 on tree, 11028.17 best solution, best possible 3542.6783 (3092.13 seconds)
Cbc0010I After 15300 nodes, 7413 on tree, 11028.17 best solution, best possible 3542.6783 (3104.06 seconds)
Cbc0010I After 15400 nodes, 7463 on tree, 11028.17 best solution, best possible 3542.6783 (3113.80 seconds)
Cbc0010I After 15500 nodes, 7513 on tree, 11028.17 best solution, best possible 3542.6783 (3125.47 seconds)
Cbc0010I After 15600 nodes, 7554 on tree, 11028.17 best solution, best possible 3547.0777 (3140.41 seconds)
Cbc0010I After 15700 nodes, 7604 on tree, 11028.17 best solution, best possible 3547.0777 (3160.27 seconds)
Cbc0010I After 15800 nodes, 7654 on tree, 11028.17 best solution, best possible 3547.0777 (3171.39 seconds)
Cbc0010I After 15900 nodes, 7704 on tree, 11028.17 best solution, best possible 3547.0777 (3180.55 seconds)
Cbc0010I After 16000 nodes, 7754 on tree, 11028.17 best solution, best possible 3547.0777 (3192.38 seconds)
Cbc0010I After 16100 nodes, 7799 on tree, 11028.17 best solution, best possible 3554.2626 (3234.75 seconds)
Cbc0010I After 16200 nodes, 7849 on tree, 11028.17 best solution, best possible 3554.2626 (3248.05 seconds)
Cbc0010I After 16300 nodes, 7899 on tree, 11028.17 best solution, best possible 3554.2626 (3257.25 seconds)
Cbc0010I After 16400 nodes, 7949 on tree, 11028.17 best solution, best possible 3554.2626 (3268.90 seconds)
Cbc0010I After 16500 nodes, 7991 on tree, 11028.17 best solution, best possible 3555.4495 (3305.91 seconds)
Cbc0010I After 16600 nodes, 8041 on tree, 11028.17 best solution, best possible 3555.4495 (3341.55 seconds)
Cbc0010I After 16700 nodes, 8091 on tree, 11028.17 best solution, best possible 3555.4495 (3354.93 seconds)
Cbc0010I After 16800 nodes, 8141 on tree, 11028.17 best solution, best possible 3555.4495 (3366.80 seconds)
Cbc0010I After 16900 nodes, 8191 on tree, 11028.17 best solution, best possible 3555.4495 (3376.92 seconds)
Cbc0010I After 17000 nodes, 8228 on tree, 11028.17 best solution, best possible 3556.8376 (3397.86 seconds)
Cbc0010I After 17100 nodes, 8278 on tree, 11028.17 best solution, best possible 3556.8376 (3417.93 seconds)
Cbc0010I After 17200 nodes, 8328 on tree, 11028.17 best solution, best possible 3556.8376 (3433.30 seconds)
Cbc0010I After 17300 nodes, 8378 on tree, 11028.17 best solution, best possible 3556.8376 (3446.74 seconds)
Cbc0010I After 17400 nodes, 8428 on tree, 11028.17 best solution, best possible 3556.8376 (3457.03 seconds)
Cbc0010I After 17500 nodes, 8472 on tree, 11028.17 best solution, best possible 3556.9544 (3468.82 seconds)
Cbc0010I After 17600 nodes, 8522 on tree, 11028.17 best solution, best possible 3556.9544 (3518.55 seconds)
Cbc0010I After 17700 nodes, 8572 on tree, 11028.17 best solution, best possible 3556.9544 (3538.16 seconds)
Cbc0010I After 17800 nodes, 8622 on tree, 11028.17 best solution, best possible 3556.9544 (3551.23 seconds)
Cbc0010I After 17900 nodes, 8672 on tree, 11028.17 best solution, best possible 3556.9544 (3561.02 seconds)
Cbc0010I After 18000 nodes, 8722 on tree, 11028.17 best solution, best possible 3556.9544 (3572.32 seconds)
Cbc0020I Exiting on maximum time
Cbc0005I Partial search - best objective 11028.17 (best possible 3556.9544), took 5966431 iterations and 18048 nodes (3608.42 seconds)
Cbc0035I Maximum depth 2160, 0 variables fixed on reduced cost

 	"Not finished"

Linearization cuts added at root node:       7551
Linearization cuts added in total:           7551  (separation time: 0.029583s)
Total solve time:                         3608.81s (3608.81s in branch-and-bound)
Lower bound:                              3556.95
Upper bound:                              10171.6  (gap: 185.91%)
Branch-and-bound nodes:                     18048
Stats: /tmp/jl_714RZg/model.nl 1510 [var]  510 [int] 1550 [con] 2051 [aux]   7551 [root]     7551 [tot] 0.029583 [sep]  3608.81 [time]  3608.82 [bb]         3.556954e+03 [lower]         1.017158e+04 [upper]   18048 [nodes]
Performance of                           FBBT:	    277.627s,    31459 runs. fix: 0.00018264 shrnk:    18.5311 ubd:          0 2ubd:          0 infeas:          0
Performance of                           OBBT:	    8.38458s,       14 runs. fix:   0.318262 shrnk:    12.6055 ubd:          0 2ubd:          0 infeas:          0
ERROR: LoadError: MathOptInterface.GetAttributeNotAllowed{MathOptInterface.ObjectiveBound}: Getting attribute MathOptInterface.ObjectiveBound() cannot be performed: AmplNLWriter.Optimizer does not support getting the attribute MathOptInterface.ObjectiveBound(). You may want to use a `CachingOptimizer` in `AUTOMATIC` mode or you may need to call `reset_optimizer` before doing this operation if the `CachingOptimizer` is in `MANUAL` mode.
Stacktrace:
  [1] get_fallback(model::AmplNLWriter.Optimizer, attr::MathOptInterface.ObjectiveBound)
    @ MathOptInterface ~/.julia/packages/MathOptInterface/gLl4d/src/attributes.jl:409
  [2] get(::AmplNLWriter.Optimizer, ::MathOptInterface.ObjectiveBound)
    @ MathOptInterface ~/.julia/packages/MathOptInterface/gLl4d/src/attributes.jl:390
  [3] _get_model_attribute(model::MathOptInterface.Utilities.CachingOptimizer{AmplNLWriter.Optimizer, MathOptInterface.Utilities.UniversalFallback{MathOptInterface.Utilities.Model{Float64}}}, attr::MathOptInterface.ObjectiveBound)
    @ MathOptInterface.Utilities ~/.julia/packages/MathOptInterface/gLl4d/src/Utilities/cachingoptimizer.jl:865
  [4] get(model::MathOptInterface.Utilities.CachingOptimizer{AmplNLWriter.Optimizer, MathOptInterface.Utilities.UniversalFallback{MathOptInterface.Utilities.Model{Float64}}}, attr::MathOptInterface.ObjectiveBound)
    @ MathOptInterface.Utilities ~/.julia/packages/MathOptInterface/gLl4d/src/Utilities/cachingoptimizer.jl:900
  [5] get(b::MathOptInterface.Bridges.LazyBridgeOptimizer{MathOptInterface.Utilities.CachingOptimizer{AmplNLWriter.Optimizer, MathOptInterface.Utilities.UniversalFallback{MathOptInterface.Utilities.Model{Float64}}}}, attr::MathOptInterface.ObjectiveBound)
    @ MathOptInterface.Bridges ~/.julia/packages/MathOptInterface/gLl4d/src/Bridges/bridge_optimizer.jl:889
  [6] _get_model_attribute(model::MathOptInterface.Utilities.CachingOptimizer{MathOptInterface.Bridges.LazyBridgeOptimizer{MathOptInterface.Utilities.CachingOptimizer{AmplNLWriter.Optimizer, MathOptInterface.Utilities.UniversalFallback{MathOptInterface.Utilities.Model{Float64}}}}, MathOptInterface.Utilities.UniversalFallback{MathOptInterface.Utilities.Model{Float64}}}, attr::MathOptInterface.ObjectiveBound)
    @ MathOptInterface.Utilities ~/.julia/packages/MathOptInterface/gLl4d/src/Utilities/cachingoptimizer.jl:865
  [7] get(model::MathOptInterface.Utilities.CachingOptimizer{MathOptInterface.Bridges.LazyBridgeOptimizer{MathOptInterface.Utilities.CachingOptimizer{AmplNLWriter.Optimizer, MathOptInterface.Utilities.UniversalFallback{MathOptInterface.Utilities.Model{Float64}}}}, MathOptInterface.Utilities.UniversalFallback{MathOptInterface.Utilities.Model{Float64}}}, attr::MathOptInterface.ObjectiveBound)
    @ MathOptInterface.Utilities ~/.julia/packages/MathOptInterface/gLl4d/src/Utilities/cachingoptimizer.jl:900
  [8] _moi_get_result(model::MathOptInterface.Utilities.CachingOptimizer{MathOptInterface.Bridges.LazyBridgeOptimizer{MathOptInterface.Utilities.CachingOptimizer{AmplNLWriter.Optimizer, MathOptInterface.Utilities.UniversalFallback{MathOptInterface.Utilities.Model{Float64}}}}, MathOptInterface.Utilities.UniversalFallback{MathOptInterface.Utilities.Model{Float64}}}, args::MathOptInterface.ObjectiveBound)
    @ JuMP ~/.julia/packages/JuMP/i68GU/src/optimizer_interface.jl:1053
  [9] get(model::JuMP.Model, attr::MathOptInterface.ObjectiveBound)
    @ JuMP ~/.julia/packages/JuMP/i68GU/src/optimizer_interface.jl:1073
 [10] objective_bound(model::JuMP.Model)
    @ JuMP ~/.julia/packages/JuMP/i68GU/src/objective.jl:78
 [11] nl_uflp_nlass(filename::String, cost::Symbol, solver::AmplNLWriter.Optimizer, solver_params::Vector{Any}; solve::Bool, write_nl::Bool, with_cap_constraint::Bool)
    @ IterativePWLB ~/git/ipwlb/code/sources/IterativePWLB/src/nlsolver.jl:885
 [12] top-level scope
    @ ~/git/ipwlb/code/sources/IterativePWLB/test/couenne/uflp_nlass/script.jl:14
in expression starting at /home/ccontard/git/ipwlb/code/sources/IterativePWLB/test/couenne/uflp_nlass/script.jl:14
reading holmberg data file /home/ccontard/git/ipwlb/code/instances/uflp/holmberg/p12
